(set-option :produce-models true); benchmark generated from python API
(set-info :status unknown)
(declare-fun l_0_0_7 () Real)
(declare-fun l_0_0_13 () Real)
(declare-fun l_0_0_1 () Real)
(declare-fun _a_0_ () Real)
(declare-fun l_0_0_8 () Real)
(declare-fun l_0_0_5 () Real)
(declare-fun l_0_0_3 () Real)
(declare-fun l_0_0_4 () Real)
(declare-fun l_0_0_2 () Real)
(declare-fun l_0_0_17 () Real)
(declare-fun l_0_0_15 () Real)
(declare-fun l_0_0_16 () Real)
(declare-fun l_0_0_14 () Real)
(declare-fun l_0_0_9 () Real)
(declare-fun l_0_0_11 () Real)
(declare-fun l_0_0_10 () Real)
(declare-fun _a_1_ () Real)
(declare-fun _a_2_ () Real)
(declare-fun _a_3_ () Real)
(declare-fun l_0_0_6 () Real)
(declare-fun l_0_0_18 () Real)
(declare-fun l_0_0_12 () Real)
(declare-fun _a_4_ () Real)
(declare-fun _a_5_ () Real)
(declare-fun l_0_1_7 () Real)
(declare-fun l_0_1_13 () Real)
(declare-fun l_0_1_1 () Real)
(declare-fun l_0_1_9 () Real)
(declare-fun l_0_1_8 () Real)
(declare-fun l_0_1_15 () Real)
(declare-fun l_0_1_14 () Real)
(declare-fun l_0_1_2 () Real)
(declare-fun l_0_1_3 () Real)
(declare-fun l_0_1_18 () Real)
(declare-fun l_0_1_17 () Real)
(declare-fun l_0_1_16 () Real)
(declare-fun l_0_1_12 () Real)
(declare-fun l_0_1_11 () Real)
(declare-fun l_0_1_10 () Real)
(declare-fun l_0_1_4 () Real)
(declare-fun l_0_1_6 () Real)
(declare-fun l_0_1_5 () Real)
(declare-fun l_0_2_7 () Real)
(declare-fun l_0_2_13 () Real)
(declare-fun l_0_2_1 () Real)
(declare-fun l_0_2_9 () Real)
(declare-fun l_0_2_8 () Real)
(declare-fun l_0_2_3 () Real)
(declare-fun l_0_2_2 () Real)
(declare-fun l_0_2_12 () Real)
(declare-fun l_0_2_11 () Real)
(declare-fun l_0_2_10 () Real)
(declare-fun l_0_2_6 () Real)
(declare-fun l_0_2_5 () Real)
(declare-fun l_0_2_4 () Real)
(declare-fun l_0_2_15 () Real)
(declare-fun l_0_2_14 () Real)
(declare-fun l_0_2_18 () Real)
(declare-fun l_0_2_17 () Real)
(declare-fun l_0_2_16 () Real)
(assert
 (let ((?x71 (* l_0_0_7 l_0_0_7)))
 (let ((?x72 (* (/ 7.0 20.0) ?x71)))
 (let ((?x69 (* l_0_0_13 l_0_0_13)))
 (let ((?x65 (* l_0_0_1 l_0_0_1)))
 (let ((?x67 (* (/ 7.0 20.0) ?x65)))
 (let ((?x68 (+ _a_0_ ?x67)))
 (= (+ (- ?x68 ?x69) ?x72) 0.0))))))))
(assert
 (let ((?x107 (+ (- _a_1_ (* (* (/ 12.0 5.0) l_0_0_1) l_0_0_4)) (* (* (/ 7.0 10.0) l_0_0_10) l_0_0_8))))
 (let ((?x114 (- (+ ?x107 (* (* (/ 7.0 10.0) l_0_0_11) l_0_0_9)) (* (* 2.0 l_0_0_14) l_0_0_16))))
 (let ((?x120 (+ (- ?x114 (* (* 2.0 l_0_0_15) l_0_0_17)) (* (* (/ 7.0 10.0) l_0_0_2) l_0_0_4))))
 (let ((?x126 (- (+ ?x120 (* (* (/ 7.0 10.0) l_0_0_3) l_0_0_5)) (* (* (/ 12.0 5.0) l_0_0_7) l_0_0_8))))
 (= ?x126 0.0))))))
(assert
 (let ((?x169 (+ (+ _a_2_ (* (* (/ 7.0 10.0) l_0_0_1) l_0_0_4)) (* (* (/ 7.0 10.0) l_0_0_10) l_0_0_7))))
 (let ((?x176 (- (- ?x169 (* (* 2.0 l_0_0_13) l_0_0_16)) (* (* (/ 6.0 5.0) l_0_0_7) l_0_0_7))))
 (= ?x176 0.0))))
(assert
 (let ((?x199 (- (+ _a_3_ (* (* (/ 7.0 10.0) l_0_0_1) l_0_0_2)) (* (* (/ 6.0 5.0) l_0_0_1) l_0_0_1))))
 (let ((?x204 (+ (- ?x199 (* (* 2.0 l_0_0_13) l_0_0_14)) (* (* (/ 7.0 10.0) l_0_0_7) l_0_0_8))))
 (= ?x204 0.0))))
(assert
 (let ((?x71 (* l_0_0_7 l_0_0_7)))
 (let ((?x247 (* l_0_0_6 l_0_0_6)))
 (let ((?x248 (* (/ 7.0 20.0) ?x247)))
 (let ((?x244 (* l_0_0_5 l_0_0_5)))
 (let ((?x245 (* (/ 7.0 20.0) ?x244)))
 (let ((?x241 (* l_0_0_4 l_0_0_4)))
 (let ((?x242 (* (/ 7.0 20.0) ?x241)))
 (let ((?x239 (* l_0_0_18 l_0_0_18)))
 (let ((?x237 (* l_0_0_17 l_0_0_17)))
 (let ((?x235 (* l_0_0_16 l_0_0_16)))
 (let ((?x232 (* l_0_0_12 l_0_0_12)))
 (let ((?x233 (* (/ 7.0 20.0) ?x232)))
 (let ((?x229 (* l_0_0_11 l_0_0_11)))
 (let ((?x230 (* (/ 7.0 20.0) ?x229)))
 (let ((?x226 (* l_0_0_10 l_0_0_10)))
 (let ((?x227 (* (/ 7.0 20.0) ?x226)))
 (let ((?x234 (+ (+ (+ (- _a_4_ (* (* (/ 12.0 5.0) l_0_0_10) l_0_0_7)) ?x227) ?x230) ?x233)))
 (let ((?x250 (+ (+ (+ (+ (- (- (- ?x234 ?x235) ?x237) ?x239) ?x242) ?x245) ?x248) ?x71)))
 (= ?x250 0.0))))))))))))))))))))
(assert
 (let ((?x285 (* l_0_0_9 l_0_0_9)))
 (let ((?x286 (* (/ 7.0 20.0) ?x285)))
 (let ((?x282 (* l_0_0_8 l_0_0_8)))
 (let ((?x283 (* (/ 7.0 20.0) ?x282)))
 (let ((?x279 (* l_0_0_3 l_0_0_3)))
 (let ((?x280 (* (/ 7.0 20.0) ?x279)))
 (let ((?x276 (* l_0_0_2 l_0_0_2)))
 (let ((?x277 (* (/ 7.0 20.0) ?x276)))
 (let ((?x274 (* l_0_0_15 l_0_0_15)))
 (let ((?x272 (* l_0_0_14 l_0_0_14)))
 (let ((?x65 (* l_0_0_1 l_0_0_1)))
 (let ((?x275 (- (- (+ (- _a_5_ (* (* (/ 12.0 5.0) l_0_0_1) l_0_0_2)) ?x65) ?x272) ?x274)))
 (= (+ (+ (+ (+ ?x275 ?x277) ?x280) ?x283) ?x286) 0.0))))))))))))))
(assert
 (let ((?x307 (- (* (* 2.0 l_0_0_1) l_0_0_2) (* (* (/ 6.0 5.0) l_0_0_2) l_0_0_2))))
 (= (- ?x307 (* (* (/ 6.0 5.0) l_0_0_3) l_0_0_3)) 0.0)))
(assert
 (let ((?x327 (- (* (* 2.0 l_0_0_1) l_0_0_4) (* (* (/ 12.0 5.0) l_0_0_2) l_0_0_4))))
 (let ((?x333 (- (- ?x327 (* (* (/ 12.0 5.0) l_0_0_3) l_0_0_5)) (* (* (/ 6.0 5.0) l_0_0_8) l_0_0_8))))
 (= (- ?x333 (* (* (/ 6.0 5.0) l_0_0_9) l_0_0_9)) 0.0))))
(assert
 (let ((?x364 (- (* (* (- (/ 12.0 5.0)) l_0_0_10) l_0_0_8) (* (* (/ 12.0 5.0) l_0_0_11) l_0_0_9))))
 (let ((?x370 (- (- ?x364 (* (* (/ 6.0 5.0) l_0_0_4) l_0_0_4)) (* (* (/ 6.0 5.0) l_0_0_5) l_0_0_5))))
 (let ((?x376 (+ (- ?x370 (* (* (/ 6.0 5.0) l_0_0_6) l_0_0_6)) (* (* 2.0 l_0_0_7) l_0_0_8))))
 (= ?x376 0.0)))))
(assert
 (= (+ (* l_0_0_2 l_0_0_2) (* l_0_0_3 l_0_0_3)) 0.0))
(assert
 (let ((?x409 (+ (* (* 2.0 l_0_0_2) l_0_0_4) (* (* 2.0 l_0_0_3) l_0_0_5))))
 (= ?x409 0.0)))
(assert
 (let ((?x285 (* l_0_0_9 l_0_0_9)))
 (let ((?x282 (* l_0_0_8 l_0_0_8)))
 (let ((?x247 (* l_0_0_6 l_0_0_6)))
 (let ((?x418 (+ (+ (+ (+ (* l_0_0_4 l_0_0_4) (* l_0_0_5 l_0_0_5)) ?x247) ?x282) ?x285)))
 (= ?x418 0.0))))))
(assert
 (let ((?x426 (- (* (* 2.0 l_0_0_10) l_0_0_7) (* (* (/ 6.0 5.0) l_0_0_10) l_0_0_10))))
 (let ((?x432 (- (- ?x426 (* (* (/ 6.0 5.0) l_0_0_11) l_0_0_11)) (* (* (/ 6.0 5.0) l_0_0_12) l_0_0_12))))
 (= ?x432 0.0))))
(assert
 (let ((?x454 (+ (* (* 2.0 l_0_0_10) l_0_0_8) (* (* 2.0 l_0_0_11) l_0_0_9))))
 (= ?x454 0.0)))
(assert
 (let ((?x232 (* l_0_0_12 l_0_0_12)))
 (= (+ (+ (* l_0_0_10 l_0_0_10) (* l_0_0_11 l_0_0_11)) ?x232) 0.0)))
(assert
 (>= l_0_0_1 0.0))
(assert
 (>= l_0_0_3 0.0))
(assert
 (>= l_0_0_6 0.0))
(assert
 (>= l_0_0_7 0.0))
(assert
 (>= l_0_0_9 0.0))
(assert
 (>= l_0_0_12 0.0))
(assert
 (>= l_0_0_13 0.0))
(assert
 (>= l_0_0_15 0.0))
(assert
 (>= l_0_0_18 0.0))
(assert
 (let ((?x482 (+ (- (* (* (- _a_0_) l_0_1_1) l_0_1_1) (* l_0_1_13 l_0_1_13)) (* 1.0 (* l_0_1_7 l_0_1_7)))))
 (= (+ ?x482 (/ 9.0 25.0)) 0.0)))
(assert
 (let ((?x479 (* l_0_1_7 l_0_1_7)))
 (let ((?x508 (* l_0_1_15 l_0_1_15)))
 (let ((?x506 (* l_0_1_14 l_0_1_14)))
 (let ((?x502 (- (* (- _a_0_) (+ (* l_0_1_2 l_0_1_2) (* l_0_1_3 l_0_1_3))) (* (* (* 2.0 _a_3_) l_0_1_1) l_0_1_2))))
 (let ((?x510 (- (- (- (- ?x502 (* (* _a_5_ l_0_1_1) l_0_1_1)) ?x506) ?x508) ?x479)))
 (let ((?x516 (+ (+ ?x510 (* 1.0 (* l_0_1_8 l_0_1_8))) (* 1.0 (* l_0_1_9 l_0_1_9)))))
 (= (- ?x516 1.0) 0.0))))))))
(assert
 (let ((?x479 (* l_0_1_7 l_0_1_7)))
 (let ((?x576 (* l_0_1_18 l_0_1_18)))
 (let ((?x574 (* l_0_1_17 l_0_1_17)))
 (let ((?x572 (* l_0_1_16 l_0_1_16)))
 (let ((?x553 (* l_0_1_6 l_0_1_6)))
 (let ((?x554 (+ (+ (* l_0_1_4 l_0_1_4) (* l_0_1_5 l_0_1_5)) ?x553)))
 (let ((?x474 (- _a_0_)))
 (let ((?x562 (- (- (* ?x474 ?x554) (* (* (* 2.0 _a_2_) l_0_1_1) l_0_1_4)) (* (* _a_4_ l_0_1_1) l_0_1_1))))
 (let ((?x568 (+ (+ ?x562 (* 1.0 (* l_0_1_10 l_0_1_10))) (* 1.0 (* l_0_1_11 l_0_1_11)))))
 (let ((?x577 (- (- (- (+ ?x568 (* 1.0 (* l_0_1_12 l_0_1_12))) ?x572) ?x574) ?x576)))
 (= (- (- ?x577 ?x479) 1.0) 0.0))))))))))))
(assert
 (let ((?x627 (* (* 2.0 l_0_1_7) l_0_1_8)))
 (let ((?x622 (- (* (* (* (- 2.0) _a_0_) l_0_1_1) l_0_1_2) (* (* _a_3_ l_0_1_1) l_0_1_1))))
 (= (+ (- ?x622 (* (* 2.0 l_0_1_13) l_0_1_14)) ?x627) 0.0))))
(assert
 (let ((?x651 (* 2.0 l_0_1_10)))
 (let ((?x652 (* ?x651 l_0_1_7)))
 (let ((?x650 (- (* (* (* (- 2.0) _a_0_) l_0_1_1) l_0_1_4) (* (* _a_2_ l_0_1_1) l_0_1_1))))
 (= (- (+ ?x650 ?x652) (* (* 2.0 l_0_1_13) l_0_1_16)) 0.0)))))
(assert
 (let ((?x693 (* (* 2.0 l_0_1_11) l_0_1_9)))
 (let ((?x651 (* 2.0 l_0_1_10)))
 (let ((?x690 (* ?x651 l_0_1_8)))
 (let ((?x681 (+ (* (* 2.0 l_0_1_2) l_0_1_4) (* (* 2.0 l_0_1_3) l_0_1_5))))
 (let ((?x474 (- _a_0_)))
 (let ((?x687 (- (- (* ?x474 ?x681) (* (* _a_1_ l_0_1_1) l_0_1_1)) (* (* (* 2.0 _a_2_) l_0_1_1) l_0_1_2))))
 (let ((?x694 (+ (+ (- ?x687 (* (* (* 2.0 _a_3_) l_0_1_1) l_0_1_4)) ?x690) ?x693)))
 (let ((?x700 (- (- ?x694 (* (* 2.0 l_0_1_14) l_0_1_16)) (* (* 2.0 l_0_1_15) l_0_1_17))))
 (= ?x700 0.0))))))))))
(assert
 (let ((?x651 (* 2.0 l_0_1_10)))
 (let ((?x652 (* ?x651 l_0_1_7)))
 (let ((?x681 (+ (* (* 2.0 l_0_1_2) l_0_1_4) (* (* 2.0 l_0_1_3) l_0_1_5))))
 (let ((?x754 (- (* (* (* (- 2.0) _a_1_) l_0_1_1) l_0_1_2) (* _a_2_ (+ (* l_0_1_2 l_0_1_2) (* l_0_1_3 l_0_1_3))))))
 (let ((?x760 (- (- ?x754 (* _a_3_ ?x681)) (* (* (* 2.0 _a_5_) l_0_1_1) l_0_1_4))))
 (= (- ?x760 ?x652) 0.0)))))))
(assert
 (let ((?x627 (* (* 2.0 l_0_1_7) l_0_1_8)))
 (let ((?x553 (* l_0_1_6 l_0_1_6)))
 (let ((?x554 (+ (+ (* l_0_1_4 l_0_1_4) (* l_0_1_5 l_0_1_5)) ?x553)))
 (let ((?x681 (+ (* (* 2.0 l_0_1_2) l_0_1_4) (* (* 2.0 l_0_1_3) l_0_1_5))))
 (let ((?x811 (- (- (* (* (* (- 2.0) _a_1_) l_0_1_1) l_0_1_4) (* _a_2_ ?x681)) (* _a_3_ ?x554))))
 (= (- (- ?x811 (* (* (* 2.0 _a_4_) l_0_1_1) l_0_1_2)) ?x627) 0.0)))))))
(assert
 (let ((?x693 (* (* 2.0 l_0_1_11) l_0_1_9)))
 (let ((?x651 (* 2.0 l_0_1_10)))
 (let ((?x690 (* ?x651 l_0_1_8)))
 (let ((?x681 (+ (* (* 2.0 l_0_1_2) l_0_1_4) (* (* 2.0 l_0_1_3) l_0_1_5))))
 (let ((?x870 (- (* (- _a_1_) (+ (* l_0_1_2 l_0_1_2) (* l_0_1_3 l_0_1_3))) (* _a_5_ ?x681))))
 (= (- (- ?x870 ?x690) ?x693) 0.0)))))))
(assert
 (let ((?x514 (* l_0_1_9 l_0_1_9)))
 (let ((?x511 (* l_0_1_8 l_0_1_8)))
 (let ((?x569 (* l_0_1_12 l_0_1_12)))
 (let ((?x566 (* l_0_1_11 l_0_1_11)))
 (let ((?x563 (* l_0_1_10 l_0_1_10)))
 (let ((?x553 (* l_0_1_6 l_0_1_6)))
 (let ((?x554 (+ (+ (* l_0_1_4 l_0_1_4) (* l_0_1_5 l_0_1_5)) ?x553)))
 (let ((?x681 (+ (* (* 2.0 l_0_1_2) l_0_1_4) (* (* 2.0 l_0_1_3) l_0_1_5))))
 (let ((?x867 (- _a_1_)))
 (let ((?x907 (- (* ?x867 ?x681) (* _a_4_ (+ (* l_0_1_2 l_0_1_2) (* l_0_1_3 l_0_1_3))))))
 (let ((?x914 (- (- (- (- (- (- ?x907 (* _a_5_ ?x554)) ?x563) ?x566) ?x569) ?x511) ?x514)))
 (= ?x914 0.0)))))))))))))
(assert
 (let ((?x693 (* (* 2.0 l_0_1_11) l_0_1_9)))
 (let ((?x651 (* 2.0 l_0_1_10)))
 (let ((?x690 (* ?x651 l_0_1_8)))
 (let ((?x681 (+ (* (* 2.0 l_0_1_2) l_0_1_4) (* (* 2.0 l_0_1_3) l_0_1_5))))
 (let ((?x553 (* l_0_1_6 l_0_1_6)))
 (let ((?x554 (+ (+ (* l_0_1_4 l_0_1_4) (* l_0_1_5 l_0_1_5)) ?x553)))
 (let ((?x867 (- _a_1_)))
 (= (- (- (- (* ?x867 ?x554) (* _a_4_ ?x681)) ?x690) ?x693) 0.0)))))))))
(assert
 (let ((?x651 (* 2.0 l_0_1_10)))
 (let ((?x652 (* ?x651 l_0_1_7)))
 (let ((?x553 (* l_0_1_6 l_0_1_6)))
 (let ((?x554 (+ (+ (* l_0_1_4 l_0_1_4) (* l_0_1_5 l_0_1_5)) ?x553)))
 (let ((?x996 (- _a_2_)))
 (let ((?x1000 (- (- (* ?x996 ?x554) (* (* (* 2.0 _a_4_) l_0_1_1) l_0_1_4)) ?x652)))
 (= ?x1000 0.0))))))))
(assert
 (let ((?x627 (* (* 2.0 l_0_1_7) l_0_1_8)))
 (let ((?x1024 (- (* (- _a_3_) (+ (* l_0_1_2 l_0_1_2) (* l_0_1_3 l_0_1_3))) (* (* (* 2.0 _a_5_) l_0_1_1) l_0_1_2))))
 (= (- ?x1024 ?x627) 0.0))))
(assert
 (let ((?x569 (* l_0_1_12 l_0_1_12)))
 (let ((?x566 (* l_0_1_11 l_0_1_11)))
 (let ((?x563 (* l_0_1_10 l_0_1_10)))
 (let ((?x553 (* l_0_1_6 l_0_1_6)))
 (let ((?x554 (+ (+ (* l_0_1_4 l_0_1_4) (* l_0_1_5 l_0_1_5)) ?x553)))
 (= (- (- (- (* (- _a_4_) ?x554) ?x563) ?x566) ?x569) 0.0)))))))
(assert
 (let ((?x514 (* l_0_1_9 l_0_1_9)))
 (let ((?x511 (* l_0_1_8 l_0_1_8)))
 (let ((?x1068 (- (* (- _a_5_) (+ (* l_0_1_2 l_0_1_2) (* l_0_1_3 l_0_1_3))) ?x511)))
 (= (- ?x1068 ?x514) 0.0)))))
(assert
 (>= l_0_1_1 0.0))
(assert
 (>= l_0_1_3 0.0))
(assert
 (>= l_0_1_6 0.0))
(assert
 (>= l_0_1_7 0.0))
(assert
 (>= l_0_1_9 0.0))
(assert
 (>= l_0_1_12 0.0))
(assert
 (>= l_0_1_13 0.0))
(assert
 (>= l_0_1_15 0.0))
(assert
 (>= l_0_1_18 0.0))
(assert
 (let ((?x1095 (* l_0_2_13 l_0_2_13)))
 (let ((?x1099 (- (- (+ (* (* (- _a_0_) l_0_2_1) l_0_2_1) _a_0_) ?x1095) (* (* 1.0 l_0_2_7) l_0_2_7))))
 (= ?x1099 0.0))))
(assert
 (let ((?x1126 (* l_0_2_9 l_0_2_9)))
 (let ((?x1124 (* l_0_2_8 l_0_2_8)))
 (let ((?x1114 (* (/ 9.0 25.0) _a_4_)))
 (let ((?x1113 (* (- (/ 3.0 10.0)) _a_1_)))
 (let ((?x1115 (+ ?x1113 ?x1114)))
 (let ((?x1120 (- ?x1115 (* _a_5_ (+ (* l_0_2_2 l_0_2_2) (* l_0_2_3 l_0_2_3))))))
 (= (+ (+ (+ ?x1120 (* (/ 1.0 4.0) _a_5_)) ?x1124) ?x1126) 0.0))))))))
(assert
 (let ((?x1126 (* l_0_2_9 l_0_2_9)))
 (let ((?x1124 (* l_0_2_8 l_0_2_8)))
 (let ((?x1177 (* l_0_2_12 l_0_2_12)))
 (let ((?x1175 (* l_0_2_11 l_0_2_11)))
 (let ((?x1173 (* l_0_2_10 l_0_2_10)))
 (let ((?x1166 (* l_0_2_6 l_0_2_6)))
 (let ((?x1167 (+ (+ (* l_0_2_4 l_0_2_4) (* l_0_2_5 l_0_2_5)) ?x1166)))
 (let ((?x1114 (* (/ 9.0 25.0) _a_4_)))
 (let ((?x1158 (* (/ 9.0 100.0) _a_1_)))
 (let ((?x1155 (+ (* (* 2.0 l_0_2_2) l_0_2_4) (* (* 2.0 l_0_2_3) l_0_2_5))))
 (let ((?x867 (- _a_1_)))
 (let ((?x1161 (- (- (* ?x867 ?x1155) ?x1158) (* _a_4_ (+ (* l_0_2_2 l_0_2_2) (* l_0_2_3 l_0_2_3))))))
 (let ((?x1176 (+ (+ (+ (- (- ?x1161 ?x1114) (* _a_5_ ?x1167)) (* (/ 2.0 5.0) _a_5_)) ?x1173) ?x1175)))
 (= (+ (+ (+ ?x1176 ?x1177) ?x1124) ?x1126) 0.0)))))))))))))))
(assert
 (let ((?x1177 (* l_0_2_12 l_0_2_12)))
 (let ((?x1175 (* l_0_2_11 l_0_2_11)))
 (let ((?x1173 (* l_0_2_10 l_0_2_10)))
 (let ((?x1240 (* (/ 4.0 25.0) _a_5_)))
 (let ((?x1237 (* (/ 9.0 100.0) _a_4_)))
 (let ((?x1166 (* l_0_2_6 l_0_2_6)))
 (let ((?x1167 (+ (+ (* l_0_2_4 l_0_2_4) (* l_0_2_5 l_0_2_5)) ?x1166)))
 (let ((?x1234 (* (/ 3.0 25.0) _a_1_)))
 (let ((?x1244 (+ (+ (+ (+ (+ (- ?x1234 (* _a_4_ ?x1167)) ?x1237) ?x1240) ?x1173) ?x1175) ?x1177)))
 (= ?x1244 0.0)))))))))))
(assert
 (let ((?x1107 (* l_0_2_7 l_0_2_7)))
 (let ((?x1279 (* l_0_2_15 l_0_2_15)))
 (let ((?x1277 (* l_0_2_14 l_0_2_14)))
 (let ((?x1272 (* (/ 1.0 2.0) _a_3_)))
 (let ((?x1266 (* (/ 3.0 5.0) _a_2_)))
 (let ((?x1267 (- (* (- _a_0_) (+ (* l_0_2_2 l_0_2_2) (* l_0_2_3 l_0_2_3))) ?x1266)))
 (let ((?x1276 (- (+ (- ?x1267 (* (* (* 2.0 _a_3_) l_0_2_1) l_0_2_2)) ?x1272) (* (* _a_5_ l_0_2_1) l_0_2_1))))
 (let ((?x1284 (- (+ (- (- ?x1276 ?x1277) ?x1279) ?x1107) (* (* 1.0 l_0_2_8) l_0_2_8))))
 (= (- ?x1284 (* (* 1.0 l_0_2_9) l_0_2_9)) 0.0))))))))))
(assert
 (let ((?x1107 (* l_0_2_7 l_0_2_7)))
 (let ((?x1349 (* l_0_2_18 l_0_2_18)))
 (let ((?x1347 (* l_0_2_17 l_0_2_17)))
 (let ((?x1345 (* l_0_2_16 l_0_2_16)))
 (let ((?x1331 (* (/ 2.0 5.0) _a_3_)))
 (let ((?x1329 (* (/ 3.0 10.0) _a_2_)))
 (let ((?x1166 (* l_0_2_6 l_0_2_6)))
 (let ((?x1167 (+ (+ (* l_0_2_4 l_0_2_4) (* l_0_2_5 l_0_2_5)) ?x1166)))
 (let ((?x474 (- _a_0_)))
 (let ((?x1330 (+ (- (* ?x474 ?x1167) (* (* (* 2.0 _a_2_) l_0_2_1) l_0_2_4)) ?x1329)))
 (let ((?x1338 (- (- (+ ?x1330 ?x1331) (* (* _a_4_ l_0_2_1) l_0_2_1)) (* (* 1.0 l_0_2_10) l_0_2_10))))
 (let ((?x1344 (- (- ?x1338 (* (* 1.0 l_0_2_11) l_0_2_11)) (* (* 1.0 l_0_2_12) l_0_2_12))))
 (= (+ (- (- (- ?x1344 ?x1345) ?x1347) ?x1349) ?x1107) 0.0))))))))))))))
(assert
 (let ((?x1397 (* (* 2.0 l_0_2_7) l_0_2_8)))
 (let ((?x1392 (- (* (* (* (- 2.0) _a_0_) l_0_2_1) l_0_2_2) (* (* _a_3_ l_0_2_1) l_0_2_1))))
 (= (- (- ?x1392 (* (* 2.0 l_0_2_13) l_0_2_14)) ?x1397) 0.0))))
(assert
 (let ((?x1425 (* 2.0 l_0_2_10)))
 (let ((?x1426 (* ?x1425 l_0_2_7)))
 (let ((?x1424 (- (* (* (* (- 2.0) _a_0_) l_0_2_1) l_0_2_4) (* (* _a_2_ l_0_2_1) l_0_2_1))))
 (= (- (- ?x1424 ?x1426) (* (* 2.0 l_0_2_13) l_0_2_16)) 0.0)))))
(assert
 (let ((?x1464 (* (* 2.0 l_0_2_11) l_0_2_9)))
 (let ((?x1425 (* 2.0 l_0_2_10)))
 (let ((?x1461 (* ?x1425 l_0_2_8)))
 (let ((?x1155 (+ (* (* 2.0 l_0_2_2) l_0_2_4) (* (* 2.0 l_0_2_3) l_0_2_5))))
 (let ((?x474 (- _a_0_)))
 (let ((?x1458 (- (- (* ?x474 ?x1155) (* (* _a_1_ l_0_2_1) l_0_2_1)) (* (* (* 2.0 _a_2_) l_0_2_1) l_0_2_2))))
 (let ((?x1465 (- (- (- ?x1458 (* (* (* 2.0 _a_3_) l_0_2_1) l_0_2_4)) ?x1461) ?x1464)))
 (let ((?x1471 (- (- ?x1465 (* (* 2.0 l_0_2_14) l_0_2_16)) (* (* 2.0 l_0_2_15) l_0_2_17))))
 (= ?x1471 0.0))))))))))
(assert
 (let ((?x1425 (* 2.0 l_0_2_10)))
 (let ((?x1426 (* ?x1425 l_0_2_7)))
 (let ((?x1155 (+ (* (* 2.0 l_0_2_2) l_0_2_4) (* (* 2.0 l_0_2_3) l_0_2_5))))
 (let ((?x1526 (- (* (* (* (- 2.0) _a_1_) l_0_2_1) l_0_2_2) (* _a_2_ (+ (* l_0_2_2 l_0_2_2) (* l_0_2_3 l_0_2_3))))))
 (let ((?x1531 (- (- ?x1526 (* _a_3_ ?x1155)) (* (* (* 2.0 _a_5_) l_0_2_1) l_0_2_4))))
 (= (+ ?x1531 ?x1426) 0.0)))))))
(assert
 (let ((?x1397 (* (* 2.0 l_0_2_7) l_0_2_8)))
 (let ((?x1166 (* l_0_2_6 l_0_2_6)))
 (let ((?x1167 (+ (+ (* l_0_2_4 l_0_2_4) (* l_0_2_5 l_0_2_5)) ?x1166)))
 (let ((?x1155 (+ (* (* 2.0 l_0_2_2) l_0_2_4) (* (* 2.0 l_0_2_3) l_0_2_5))))
 (let ((?x1577 (- (- (* (* (* (- 2.0) _a_1_) l_0_2_1) l_0_2_4) (* _a_2_ ?x1155)) (* _a_3_ ?x1167))))
 (= (+ (- ?x1577 (* (* (* 2.0 _a_4_) l_0_2_1) l_0_2_2)) ?x1397) 0.0)))))))
(assert
 (let ((?x1464 (* (* 2.0 l_0_2_11) l_0_2_9)))
 (let ((?x1425 (* 2.0 l_0_2_10)))
 (let ((?x1461 (* ?x1425 l_0_2_8)))
 (let ((?x1155 (+ (* (* 2.0 l_0_2_2) l_0_2_4) (* (* 2.0 l_0_2_3) l_0_2_5))))
 (let ((?x1628 (- (* (- _a_1_) (+ (* l_0_2_2 l_0_2_2) (* l_0_2_3 l_0_2_3))) (* _a_5_ ?x1155))))
 (= (+ (+ ?x1628 ?x1461) ?x1464) 0.0)))))))
(assert
 (let ((?x1464 (* (* 2.0 l_0_2_11) l_0_2_9)))
 (let ((?x1425 (* 2.0 l_0_2_10)))
 (let ((?x1461 (* ?x1425 l_0_2_8)))
 (let ((?x1155 (+ (* (* 2.0 l_0_2_2) l_0_2_4) (* (* 2.0 l_0_2_3) l_0_2_5))))
 (let ((?x1166 (* l_0_2_6 l_0_2_6)))
 (let ((?x1167 (+ (+ (* l_0_2_4 l_0_2_4) (* l_0_2_5 l_0_2_5)) ?x1166)))
 (let ((?x867 (- _a_1_)))
 (= (+ (+ (- (* ?x867 ?x1167) (* _a_4_ ?x1155)) ?x1461) ?x1464) 0.0)))))))))
(assert
 (let ((?x1425 (* 2.0 l_0_2_10)))
 (let ((?x1426 (* ?x1425 l_0_2_7)))
 (let ((?x1166 (* l_0_2_6 l_0_2_6)))
 (let ((?x1167 (+ (+ (* l_0_2_4 l_0_2_4) (* l_0_2_5 l_0_2_5)) ?x1166)))
 (let ((?x996 (- _a_2_)))
 (let ((?x1691 (+ (- (* ?x996 ?x1167) (* (* (* 2.0 _a_4_) l_0_2_1) l_0_2_4)) ?x1426)))
 (= ?x1691 0.0))))))))
(assert
 (let ((?x1397 (* (* 2.0 l_0_2_7) l_0_2_8)))
 (let ((?x1711 (- (* (- _a_3_) (+ (* l_0_2_2 l_0_2_2) (* l_0_2_3 l_0_2_3))) (* (* (* 2.0 _a_5_) l_0_2_1) l_0_2_2))))
 (= (+ ?x1711 ?x1397) 0.0))))
(assert
 (>= l_0_2_1 0.0))
(assert
 (>= l_0_2_3 0.0))
(assert
 (>= l_0_2_6 0.0))
(assert
 (>= l_0_2_7 0.0))
(assert
 (>= l_0_2_9 0.0))
(assert
 (>= l_0_2_12 0.0))
(assert
 (>= l_0_2_13 0.0))
(assert
 (>= l_0_2_15 0.0))
(assert
 (>= l_0_2_18 0.0))
(check-sat)
(get-model)